744.41 0
0 34 52 27 13 54 57 15 45 4 0 
0 26 12 72 31 55 25 50 18 24 49 16 51 0 
0 17 40 39 9 32 44 3 0 
0 75 68 2 74 21 61 28 62 6 0 
0 30 48 47 36 69 71 60 70 20 37 5 29 0 
0 63 23 56 41 43 42 64 22 1 73 33 0 
0 53 11 66 65 38 10 58 0 
0 7 35 14 59 19 8 46 67 0 
